NAME : XML100_3343_17
DIMENSION : 101
NB_CLUSTERS : 4
CLUSTERING_ALG : KMedoids
CLUSTERING_PARAMS : k(3)
CLUSTERS
1 0
2 3 5 9 10 11 14 17 19 20 22 23 27 29 31 35 36 46 50 58 59 60 62 65 69 71 73 77 78 79 81 82 84 87 88 91 96 98
3 2 7 16 24 25 26 28 32 37 38 39 40 41 42 44 51 53 54 64 66 68 72 80 85 89 90 95 97
4 1 4 6 8 12 13 15 18 21 30 33 34 43 45 47 48 49 52 55 56 57 61 63 67 70 74 75 76 83 86 92 93 94 99 100
EOF